letting n =  10
letting blocks =  [[1, 2], [2, 6], [2, 10], [3, 7], [4, 1], [4, 2], [4, 5], [4, 9], [5, 1], [5, 4], [5, 5], [6, 4], [6, 10], [7, 7], [8, 4], [8, 6], [9, 1], [9, 5], [10, 1], [10, 3], [10, 4], [10, 5]]
